************************************************************************
file with basedata            : md348_.bas
initial value random generator: 2017062059
************************************************************************
projects                      :  1
jobs (incl. supersource/sink ):  22
horizon                       :  155
RESOURCES
  - renewable                 :  2   R
  - nonrenewable              :  2   N
  - doubly constrained        :  0   D
************************************************************************
PROJECT INFORMATION:
pronr.  #jobs rel.date duedate tardcost  MPM-Time
    1     20      0       24       19       24
************************************************************************
PRECEDENCE RELATIONS:
jobnr.    #modes  #successors   successors
   1        1          3           2   3   4
   2        3          2           5  14
   3        3          1          18
   4        3          2           8  13
   5        3          3           6   7  17
   6        3          2          15  20
   7        3          3          10  12  13
   8        3          3           9  10  17
   9        3          3          11  12  16
  10        3          3          16  19  20
  11        3          3          14  15  21
  12        3          1          21
  13        3          2          15  16
  14        3          2          18  20
  15        3          1          18
  16        3          1          21
  17        3          1          19
  18        3          1          19
  19        3          1          22
  20        3          1          22
  21        3          1          22
  22        1          0        
************************************************************************
REQUESTS/DURATIONS:
jobnr. mode duration  R 1  R 2  N 1  N 2
------------------------------------------------------------------------
  1      1     0       0    0    0    0
  2      1     1      10    0    5    0
         2     3       6    0    0    6
         3     6       0    3    4    0
  3      1     5       0    7    0    3
         2    10       0    7    1    0
         3    10       0    6    0    2
  4      1     4       7    0    8    0
         2     6       0    6    7    0
         3     7       0    1    7    0
  5      1     3      10    0    3    0
         2     3       8    0    0    5
         3     3       0    1    0    5
  6      1     1       6    0    0    5
         2     5       0    4   10    0
         3     9       4    0    7    0
  7      1     2       0   10    0    6
         2     3       0    9    4    0
         3     6       0    9    0    5
  8      1     3       8    0    0    9
         2     8       0    9    0    7
         3     8       8    0    8    0
  9      1     3       6    0    7    0
         2     4       0    2    4    0
         3    10       6    0    0    6
 10      1     3       9    0    0    7
         2     4       3    0    0    6
         3     5       0    3    0    6
 11      1     7       4    0    0    6
         2     8       0    8    0    5
         3     9       0    4    8    0
 12      1     1       0    4    8    0
         2     4       0    3    0    5
         3     5       8    0    8    0
 13      1     4       0    6    4    0
         2     6       6    0    0    6
         3     8       0    4    4    0
 14      1     4       4    0    4    0
         2     6       2    0    0    6
         3     7       0    4    0    5
 15      1     2       0    7    0    6
         2     3       6    0    0    2
         3     9       4    0    8    0
 16      1     2       0    9    0    1
         2     4       3    0    0    1
         3    10       0    8    9    0
 17      1     5       0    7    0    5
         2     5       5    0   10    0
         3     8       3    0    0    6
 18      1     1       7    0    0    6
         2     1       5    0    5    0
         3     7       4    0    5    0
 19      1     2       0    9    6    0
         2     4       0    8    0    6
         3    10       6    0    0    6
 20      1     2       0    2    3    0
         2     7       8    0    0    6
         3    10       6    0    0    4
 21      1     3       0    3    0    5
         2     4       9    0    8    0
         3     8       3    0    4    0
 22      1     0       0    0    0    0
************************************************************************
RESOURCEAVAILABILITIES:
  R 1  R 2  N 1  N 2
   26   23  119  106
************************************************************************
MAXIMAL LAGS:
from  to  type  delay
    1   12   ES      0
    1    2   ES      0
    2   12   ES      0
    1    3   ES      0
    3   12   ES      0
    1    4   ES      0
    4   12   ES      0
    1    5   ES      0
    5   12   ES      0
    1    6   ES      0
    6   12   ES      0
    1    7   ES      0
    7   12   ES      0
    1    8   ES      0
    8   12   ES      0
    1    9   ES      0
    9   12   ES      0
    1   10   ES      0
   10   12   ES      0
    1   11   ES      0
   11   12   ES      0
    1   12   ES      0
    2    5   SS     -7
    2    5   SE      0
    2    5   ES      8
    2    5   EE      0
    2   14   SS     -4
    2   14   SE      5
    2   14   ES      1
    2   14   EE      7
    3   18   SS      9
    3   18   SE      5
    3   18   ES      7
    3   18   EE     -5
    4    8   SS     10
    4    8   SE      6
    8    4   SE      0
    4    8   ES      0
    4    8   EE     10
    4   13   SS      7
    4   13   SE      5
    4   13   ES      2
    4   13   EE     -3
    5    6   SS      4
    5    6   SE      0
    5    6   ES      6
    5    6   EE     -3
    5    7   SS     10
    5    7   SE    -10
    5    7   ES     -2
    5    7   EE     -2
    5   17   SS      6
    5   17   SE     -4
    5   17   ES     -2
    5   17   EE      9
    6   15   SS    -11
    6   15   SE     -9
    6   15   ES     -9
    6   15   EE      7
    6   20   SS     -8
    6   20   SE     11
    6   20   ES      7
    6   20   EE      9
    7   10   SS     -7
    7   10   SE    -11
    7   10   ES      9
    7   10   EE     12
    7   13   SS      3
    7   13   SE     -1
    7   13   ES     -5
    7   13   EE     10
    8    9   SS      0
    8    9   SE     10
    8    9   ES    -11
    8    9   EE     -1
    8   10   SS     -9
    8   10   SE    -10
    8   10   ES      3
    8   10   EE    -10
    8   17   SS      1
    8   17   SE      9
    8   17   ES     11
    8   17   EE    -11
    9   11   SS     -5
    9   11   SE      7
    9   11   ES      5
    9   11   EE     12
    9   16   SS     12
    9   16   SE      5
    9   16   ES      0
    9   16   EE     -6
   10   16   SS      1
   10   16   SE     -2
   10   16   ES     -5
   10   16   EE      1
   10   19   SS     10
   10   19   SE      8
   10   19   ES     -8
   10   19   EE     -9
   10   20   SS      4
   10   20   SE      6
   10   20   ES     -4
   10   20   EE     -2
   11   14   SS     -1
   11   14   SE      7
   11   14   ES    -11
   11   14   EE      0
   11   15   SS      3
   11   15   SE    -12
   11   15   ES    -11
   11   15   EE    -12
   11   21   SS      7
   11   21   SE      8
   11   21   ES      8
   11   21   EE      6
   12   21   SS     -3
   12   21   SE     -8
   12   21   ES     -3
   12   21   EE      4
   13   15   SS      6
   13   15   SE     -4
   13   15   ES     -7
   13   15   EE    -11
   13   16   SS     -3
   13   16   SE      0
   13   16   ES      0
   13   16   EE      9
   14   18   SS     -4
   14   18   SE     11
   14   18   ES      5
   14   18   EE      7
   14   20   SS      1
   14   20   SE      1
   14   20   ES      3
   14   20   EE      1
   15   18   SS    -11
   15   18   SE     -2
   15   18   ES      1
   15   18   EE     -4
   16   21   SS     -7
   16   21   SE    -12
   16   21   ES     -3
   16   21   EE     -2
   17   19   SS      1
   17   19   SE     -1
   17   19   ES      3
   17   19   EE     12
   18   19   SS      2
   18   19   SE     -2
   18   19   ES      5
   18   19   EE    -12
   19   22   SS      6
   19   22   SE      2
   19   22   ES     -3
   19   22   EE     12
   20   22   SS     -2
   20   22   SE     -5
   20   22   ES     -6
   20   22   EE      4
   21   22   SS      7
   21   22   SE    -12
   21   22   ES      1
   21   22   EE     -8
************************************************************************
